header = "vasp.5.4.4.18Apr17-6-g9f103f2a35 (build Sep 07 2017 14:51:09) complex

 executed on             " str "
" serial version\n")
"

 INCAR:
 POTCAR:    " ("PAW_PBE Si 05Jan2001"|"US Si"|"PAW_PBE C 08Apr2002"|"PAW_GGA C_h 18Jul2000") "                  ";

warning = "
|           W    W    AA    RRRRR   N    N  II  N    N   GGGG   !!!           |
|           W    W   A  A   R    R  NN   N  II  NN   N  G    G  !!!           |
|           W    W  A    A  R    R  N N  N  II  N N  N  G       !!!           |
|           W WW W  AAAAAA  RRRRR   N  N N  II  N  N N  G  GGG   !            |
|           WW  WW  A    A  R   R   N   NN  II  N   NN  G    G                |
|           W    W  A    A  R    R  N    N  II  N    N   GGGG   !!!           |
|      For optimal performance we recommend to set                            |
|        NCORE= " num " - approx SQRT( number of cores)                             |
|      This setting can  greatly improve the performance of VASP for DFT.     |
|      The default, NPAR=number of cores might be grossly inefficient         |
|      on modern multi-core architectures or massively parallel machines.     |
|      Do your own testing !!!!                                               |
|      Unfortunately you need to use the default for GW and RPA calculations. |
|      (for HF NCORE is supported but not extensively tested yet)             |
";

potcar = " POTCAR:    " ("PAW_PBE Si 05Jan2001"|"US Si"|"PAW_PBE C 08Apr2002"|"PAW_GGA C_h 18Jul2000") "
   VRHFIN =" ("Si"|"C") ": s2p2

   TITEL  = " ("PAW_PBE Si 05Jan2001"|"US Si"|"PAW_PBE C 08Apr2002"|"PAW_GGA C_h 18Jul2000") "
   POMASS =   " numf "; ZVAL   =    " numf "    mass and valenz
   ENMAX  =  " numf "; ENMIN  =  " numf " eV
" ("   LPAW   =        " truthy "    paw PP                                                  \n")?
"   EAUG   =  " numf "
" ("   DEXC   =    " numf "                                                            \n")?
"   RMAX   =    " numf "    core radius for proj-oper
" ("   RAUG   =    " numf "    factor for augmentation sphere                          \n")?
  ("   RDEP   =    " numf "    radius for radial grids                                 \n")?
  ("   RDEPT  =    " numf "    core radius for aug-charge                              \n")?
  ("   QCUT   =   " numf "; QGAM   =    " numf "    optimization parameters              \n")?
  ("   Atomic configuration
    " num " entries
     n  l   j            E        occ.
" atomicconfigentry* )?
"
   Description
     l       E           TYP  RCUT    TYP  RCUT
" descriptionentry*
" ("  partial core-charges read in\n")?
  ("  partial kinetic energy density read in\n")?
" localcontribution*
  ("    PAW grid and wavefunctions read in\n")?
"
   number of l-projection  operators is LMAX  =           " num "
   number of lm-projection operators is LMMAX =           " num "

" ( ("PAW_PBE Si 05Jan2001"|"US Si"|"PAW_PBE C 08Apr2002"|"PAW_GGA C_h 18Jul2000") "                  :
 energy of atom  " num "       EATOM= " numf "

 Optimization of the real space projectors (new method)

 maximal supplied QI-value         = " numf "
 optimisation between [QCUT,QGAM] = [ " numf ", " numf "] = [ " numf "," numf "] Ry
 Optimized for a Real-space Cutoff    " numf " Angstroem

   l    n(q)    QCUT    max X(q) W(low)/X(q) W(high)/X(q)  e(spline)
" realspaceentry*
"  PAW_PBE Si 05Jan2001                  :
 energy of atom  " num "       EATOM= " numf "

\n")? ;

atomicconfigentry = "     " num "  "  num "  " numf "     " numf "   " numf "                                         \n";

descriptionentry = "     " num "    " numf "     " num "  " numf "                                             \n";

    real space projection operators read in\n";

realspaceentry = "   " num "      " num "    " numf "   " numf "    " numf "    " numf "    " numf "\n";

chain = " VTST: version 3.1, (03/28/14)

 CHAIN: initializing optimizer

 OPT: Using Conjugate-Gradient optimizer
 OPT: CG, Init
 OPT: CG, FDSTEP      " numf "
 OPT: CG, MAXMOVE      " numf "

 CHAIN: Read ICHAIN            " num;

poscar = " POSCAR: " ("Si"|"Si_hSi_h/301 - (A4) - A4 DIA [A] (301)"|"CY_sv/301 - (301) - A4 DIA [A] (301)  HT"|"CZr_sv/305 - (305) - A5 betaSn [A] (305)"|"C"|"C_hC_h/301 - (A4) - A4 DIA [A] (301)  (h") "
  positions in " ("direct lattice"|"cartesian coordinates") "
" ("  No initial velocities read in"|"  velocities in cartesian coordinates") "
" (" exchange correlation table for  LEXCH =        " num "
" corrtabentry* )?
"

 ion  position               nearest neighbor table
" nearestneighbourtableentry*
"

" ("IMPORTANT INFORMATION: All symmetrisations will be switched off!
NOSYMM: (Re-)initialisation of all symmetry stuff for point group C_1.\n"|
  ("  LATTYP: Found a face centered cubic cell.
 ALAT       =     " numf
  |"  LATTYP: Found a body centered tetragonal cell.
 ALAT       =     " numf "
 C/A-ratio  =     " numf )
"
  Lattice vectors:

 A1 = (   " numf ",   " numf ",   " numf ")
 A2 = (   " numf ",   " numf ",   " numf ")
 A3 = (   " numf ",   " numf ",   " numf ")
" (" Subroutine PRICEL returns:
 Original cell was already a primitive cell.

Analysis of symmetry for initial positions (statically):

 Routine SETGRP: Setting up the symmetry group for a
 " ("face centered cubic supercell."|"body centered tetragonal supercell.") "

 Subroutine GETGRP returns: Found " num " space group operations
 (whereof " num " operations were pure point group operations)
 out of a pool of " num " trial point group operations.

The static configuration has the point symmetry " ("T_d"|"C_2h") " .
 The point group associated with its full space group is " ("O_h"|"D_4h") " .

Analysis of symmetry for dynamics (positions and initial velocities):

 Subroutine DYNSYM returns: Found " num " space group operations
 (whereof " num " operations were pure point group operations)
 out of a pool of " num " trial space group operations
 (whereof " num " operations were pure point group operations)
 and found also     " num " 'primitive' translations

The dynamic configuration has the point symmetry " ("T_d"|"C_2h") " .
 The point group associated with its full space group is " ("O_h"|"D_4h") " .\n")

  ("Analysis of magnetic symmetry:

 Subroutine MAGSYM returns: Found " num " space group operations
 (whereof " num " operations were pure point group operations)
 out of a pool of " num " trial space group operations
 (whereof " num " operations were pure point group operations)
 and found also     " num " 'primitive' translations

The magnetic configuration has the point symmetry " ("T_d"|"C_2h") " .
 The point group associated with its full space group is " ("O_h"|"D_4h") " .\n")|
"

Analysis of symmetry for initial positions (statically):
 Subroutine PRICEL returns:
 Original cell was already a primitive cell.

 Routine SETGRP: Setting up the symmetry group for a
 face centered cubic supercell.

[...]

The static configuration has the point symmetry T_d .
 The point group associated with its full space group is O_h .

Analysis of symmetry for dynamics (positions and initial velocities):
 Subroutine PRICEL returns:
 Original cell was already a primitive cell.

 Routine SETGRP: Setting up the symmetry group for a
 face centered cubic supercell.

 Subroutine GETGRP returns: Found " num " space group operations
 (whereof " num " operations were pure point group operations)
 out of a pool of " num " trial point group operations.

The dynamic configuration has the point symmetry T_d .
 The point group associated with its full space group is O_h .\n")
"

 KPOINTS: " ("Auto-mesh"|"KPOINTS created by Atomic Simulation Env"|"FCC (face-centered cubic) G-X-W-K-G-L-U-"|"KPOINTS File, automatically generated by"|"KPOINTS") "
" ("  interpolating k-points between supplied coordinates
  k-points in reciprocal lattice"|"

Automatic generation of k-mesh.
" ("Space group operators:
 irot       det(A)        alpha          n_x          n_y          n_z        tau_x        tau_y        tau_z
" ("    " num "     " numf "     " numf "     " numf "     " numf "     " numf "     " numf "     " numf "     " numf "\n")*)?
"
 Subroutine IBZKPT returns following result:

 Found     " num " irreducible k-points:

 Following reciprocal coordinates:
            Coordinates               Weight
" reccoord*
"
 Following cartesian coordinates:
            Coordinates               Weight
" cartcoord* )
"

" (" TETIRR: Found    " num " inequivalent tetrahedra from    " num "\n")?
"

" (" I would recommend the setting:
   dimension x,y,z NGX =    " num " NGY =   " num " NGZ =   " num "\n")?
" SYSTEM =  " ("Si"|"unknown system"|"Si_h.A4"|"CY_sv.301"|"CZr_sv.305"|"C_h.A4") "
 POSCAR =  " ("Si"|"Si_hSi_h/301 - (A4) - A4 DIA [A] (301)"|"CY_sv/301 - (301) - A4 DIA [A] (301)  HT"|"CZr_sv/305 - (305) - A5 betaSn [A] (305)"|"C"|"C_hC_h/301 - (A4) - A4 DIA [A] (301)  (h") "

";

corrtabentry = "   RHO(" num ")=    " numf "       N(" num ")  =     " num "\n";

nearestneighbourtableentry = "   " num "  " numf "  " numf "  " numf "-   " num " " numf "   " num " " numf "   " num " " numf "   " num " " numf "\n";

reccoord = "  " numf "  " numf "  " numf "      " numf "\n";

cartcoord = "  " numf "  " numf "  " numf "      " numf "\n";

param = " Startparameter for this run:
   NWRITE =      " num "    write-flag & timer
   PREC   = " ("accura"|"normal"|"high"|"med") "    " ("normal or accurate (medium, high low for compatibility)"|"medium, high low") "
   ISTART =      " num "    job   : 0-new  1-cont  2-samecut
   ICHARG =      " num "    charge: 1-file 2-atom 10-const
   ISPIN  =      " num "    spin polarized calculation?
   LNONCOLLINEAR =      " truthy " non collinear calculations
   LSORBIT =      " truthy "    spin-orbit coupling
   INIWAV =      " num "    electr: 0-lowe 1-rand  2-diag
   LASPH  =      " truthy "    aspherical Exc in radial PAW
   METAGGA=      " truthy "    non-selfconsistent MetaGGA calc.

 Electronic Relaxation " num "
   ENCUT  =  " numf " eV  " numf " Ry    " numf " a.u.   " numf "  " numf "  " numf "*2*pi/ulx,y,z
   ENINI  =  " numf "     initial cutoff
   ENAUG  =  " numf " eV  augmentation charge cutoff
   NELM   =    " num ";   NELMIN=  " num "; NELMDL=" num "     # of ELM steps
   EDIFF  = " numf "   stopping-criterion for ELM
   LREAL  =      " truthy "    real-space projection
" ("   NLSPLINE    = " truthy "    spline interpolate recip. space projectors\n")?
"   LCOMPAT=      " truthy "    compatible to vasp.4.4
" ("   LREAL_COMPAT= " truthy "    compatible to vasp.4.5.1-3\n")?
"   GGA_COMPAT  = " truthy "    GGA compatible to vasp.4.4-vasp.4.6
   LMAXPAW     = " num " max onsite density
   LMAXMIX     =    " num " max onsite mixed and CHGCAR
   VOSKOWN=      " num "    Vosko Wilk Nusair interpolation
   ROPT   =   " numf "
 Ionic relaxation
   EDIFFG = " numf "   stopping-criterion for IOM
   NSW    =      " num "    number of steps for IOM
   NBLOCK =      " num ";   KBLOCK =      " num "    inner block; outer block
   IBRION =     " num "    ionic relax: 0-MD 1-quasi-New 2-CG
   NFREE  =     " num "    steps in history (QN), initial steepest desc. (CG)
   ISIF   =      " num "    stress and relaxation
[...]
   LINTERFAST=   " truthy "  fast interpolation
   KINTER  =     " num "    interpolate to denser k-point grid
   CSHIFT  =" numf "    complex shift for real part using Kramers Kronig
   OMEGAMAX=  " numf "    maximum frequency
" ("   DEG_THRESHOLD= " numf " threshold for treating states as degnerate\n")?
  ("   RTIME   =   " numf " relaxation time in fs\n")?
  ("  (WPLASMAI=    " numf " imaginary part of plasma frequency in eV, " numf "/RTIME)\n")?
  ("   DFIELD  = " numf " " numf " " numf " field for delta impulse in time\n")?
"
 Orbital magnetization related:
   ORBITALMAG=     " truthy "  switch on orbital magnetization
   LCHIMAG   =     " truthy "  perturbation theory with respect to B field
" ("   DQ        =  " numf "  dq finite difference perturbation B field\n")?
  ("   LLRAUG    =     " truthy "  two centre corrections for induced B field\n")? )?
"

[...]

staticcalc = " " ("Static calculation"|"conjugate gradient relaxation of ions") "
" (" charge density and potential will be updated during run"|" charge density remains constant during run") "
 " ("non-")? "spin polarized calculation
" (" RMM-DIIS sequential band-by-band and
  variant of blocked Davidson during initial phase\n")?
  (" Variant of blocked Davidson
 Davidson routine will perform the subspace rotation\n")?
" perform" ("e")? " sub-space diagonalisation
    " ("before"|"after") " iterative eigenvector-optimisation
" (" modified Broyden-mixing scheme, WC =      " numf "
 initial mixing is a Kerker type mixing with AMIX =  " numf " and BMIX =      " numf "
 Hartree-type preconditioning will be used"|" no mixing") "
 using additional bands            " num "
" (" real space projection scheme for non local part\n")?
  (" reciprocal scheme for non local part\n")?
  (" use partial core corrections\n")?
" calculate Harris-corrections to forces
   (improved forces if not selfconsistent)
 use gradient corrections
" (" Methfessel and Paxton  Order N= " num " SIGMA  =   " numf "\n")?
  (" use of overlap-Matrix (Vanderbilt PP)")?
  (" WARNING: stress and forces are not correct
  (second dervivative of E(xc) not defined)\n")?
  (" Gauss-broadening in eV      SIGMA  =   " numf "\n"|
  " Fermi-smearing in eV        SIGMA  =   " numf "\n"|
  " Fermi weights with tetrahedron method with Bloechl corrections\n")?
"

  energy-cutoff  :      " numf "
  volume of cell :      " numf "
      direct lattice vectors                 reciprocal lattice vectors
     " numf "  " numf "  " numf "     " numf "  " numf "  " numf "
     " numf "  " numf "  " numf "     " numf "  " numf "  " numf "
     " numf "  " numf "  " numf "     " numf "  " numf "  " numf "

  length of vectors
     " numf "  " numf "  " numf "     " numf "  " numf "  " numf "

 k-points in units of 2pi/SCALE and weight: " ("Auto-mesh"|"KPOINTS created by Atomic Simulation Env"|"FCC (face-centered cubic) G-X-W-K-G-L-U-"|"KPOINTS File, automatically generated by"|"KPOINTS") "
" kpointsin2pi*
"
 k-points in reciprocal lattice and weights: " ("Auto-mesh"|"KPOINTS created by Atomic Simulation Env"|"FCC (face-centered cubic) G-X-W-K-G-L-U-"|"KPOINTS File, automatically generated by"|"KPOINTS") "
" kpointsinrec*
"
 position of ions in fractional coordinates (direct lattice)
" ionfracpos*
"
 position of ions in cartesian coordinates  (Angst):
" ioncartpos*
"

" kpointplanewaves*
"
" (" maximum and minimum number of plane-waves per node :       " num "      " num "\n")?
"
 maximum number of plane-waves:      " num "
 maximum index in each direction:
   IXMAX=    " num "   IYMAX=    " num "   IZMAX=    " num "
   IXMIN=   " num "   IYMIN=   " num "   IZMIN=   " num "

" (" WARNING: aliasing errors must be expected set NGX to  " num " to avoid them
 WARNING: aliasing errors must be expected set NGY to  " num " to avoid them
 WARNING: aliasing errors must be expected set NGZ to  " num " to avoid them
 aliasing errors are usually negligible using standard VASP settings
 and one can safely disregard these warnings\n"|
  (" NGX is ok and might be reduce to  " num "\n"|
  " WARNING: wrap around error must be expected set NGX to  "num"\n")
  (" NGY is ok and might be reduce to  " num "\n"|
  " WARNING: wrap around error must be expected set NGY to  "num"\n")
  (" NGZ is ok and might be reduce to  " num "\n"|
  " WARNING: wrap around error must be expected set NGZ to  "num"\n"))

  (" real space projection operators:
  max/ min on nodes  :        " numf "        " numf "\n")?
"
" ("
" (" serial   3D FFT for wavefunctions\n"|
  " parallel " ("3D FFT"|"3dFFT") " for wavefunctions:
    minimum data exchange during FFTs selected (reduces bandwidth)\n")
" parallel " ("3D FFT"|"3dFFT") " for charge:
    minimum data exchange during FFTs selected (reduces bandwidth)\n")?
"
" ("

  (" Broyden mixing: mesh for mixing (old mesh)
   NGX = " num "   NGY = " num "   NGZ = " num "
  (NGX  = " num "   NGY  = " num "   NGZ  = " num ")
  gives a total of   " num " points\n")?
"
 initial charge density was supplied:
" (" charge density of overlapping atoms calculated\n")?
" number of electron      " numf " magnetization
 keeping initial charge density in first step

" (" Maximum index for non-local projection operator          " num "\n")?
" Maximum index for augmentation-charges         " num " (set IRDMAX)

";

kpointsin2pi = "   " numf "  " numf "  " numf "       " numf "\n";

ionfracpos = "   " numf "  " numf "  " numf "\n";

kpointsinrec = "   " numf "  " numf "  " numf "       " numf "\n";

ioncartpos = "   " numf "  " numf "  " numf "\n";

kpointplanewaves = " k-point  " (num|"**") " :   " numf4  numf4  numf4 "  plane waves:    " num "\n";

scl = sclinit (scliteration sclend)*;
sclinit = " First call to EWALD:  gamma=   " numf "
 Maximum number of real-space cells 3x 3x 3
 Maximum number of reciprocal cells 3x 3x 3

" (" FEWALD executed in parallel\n")?
"
";

scliteration = "--------------------------------------- Iteration      " num "(   " num ")  ---------------------------------------

  (" BZINTS: Fermi energy:  " numf ";  " numf " electrons
         Band energy:  " numf ";  BLOECHL correction: " numf "\n")?
"    --------------------------------------------
" (" BZINTS: Fermi energy:  " numf ";  " numf " electrons
         Band energy:  " numf ";  BLOECHL correction: " numf "\n")?
"    ------------------------------------------

 eigenvalue-minimisations  :  " (num|"******") "
 total energy-change (2. order) : " numf "  (" numf ")
 number of electron      " numf " magnetization
" (" augmentation part       " numf " magnetization \n")?
"
" (" Broyden mixing:
  rms(total) = " numf "    rms(broyden)= " numf "
  rms(prec ) = " numf "
  weight for this iteration     " numf "
\n")?

  (" eigenvalues of (default mixing * dielectric matrix)
  average eigenvalue GAMMA=   " numf "
  " (numf " ")* "
\n")?
" Free energy of the ion-electron system (eV)
  alpha Z        PSCENC =        " numf "
  Ewald energy   TEWEN  =      " numf "
  -" ("1/2 ")? "Hartree " ("energ")? " DENC   =       " numf "
" ("  -exchange      EXHF   =         " numf "\n")?
"  -V(xc)+E(xc)   XCENC  =       " numf "
  PAW double counting   =       " numf "     " numf "
  entropy T*S    EENTRO =        " numf "
  eigenvalues    EBANDS =       " numf "
  atomic energy  EATOM  =       " numf "
" ("  Solvation  Ediel_sol  =         " numf "\n")?
"  ---------------------------------------------------
  free energy    TOTEN  =        " numf " eV

  energy without entropy =       " numf "  energy(sigma->0) =       " numf "

" ((" average (electrostatic) potential at core
  the test charge radii are     " numf "
  (the norm of the test charge is              " numf ")
"  ("       " num " " numf )+)? "

 E-fermi :   " numf "     XC(G=0):  " numf "     alpha+bet :" numf "
" ("   add alpha+bet to get absolut eigen values\n")?"\n")?
  (("\n spin component " num "\n")?

 kpoint*)*
"

" ("\n soft charge-density along one line, spin component           " num "
         " num "         " num "         " num "         " num "         " num "         " num "         " num "         " num "         " num "         " num "
" softcharge*)*
  (" total charge-density along one line
" softcharge*)?
"
" (" pseudopotential strength for first ion, spin component:           " num "
" pseudopotentialentry* )+
  (" total augmentation occupancy for first ion, spin component:           " num "
" augmentationentry* )*
"\n")?;

sclend = "
------------------------ aborting loop because EDIFF is reached ----------------------------------------

" (" total charge

# of ion     s       p       d       tot
" ion*
"------------------------------------------------
tot        " numf "   " numf "   " numf "   " numf "\n")?
  ("

 magnetization (x)

# of ion     s       p       d       tot
" ion*
"------------------------------------------------
tot       " numf "   " numf "   " numf "   " numf "\n")?
  ("  FREE ENERGIE OF THE ION-ELECTRON SYSTEM (eV)
  free  energy   TOTEN  =       " numf " eV

  energy  without entropy=      " numf "  energy(sigma->0) =      " numf "
 \n")?
  ("\n--------------------------------------------------------------------------------------------------------\n\n")?
  (" d Force = " numf "[ " numf ", " numf "]  d Energy =" numf "" numf"\n")? //may be special floats with set lengths
  (" d Force = " numf "[ " numf ", " numf "]  d Ewald  =" numf "" numf"\n")?
"
" (" ---------------------------------------------------------------------------------------------\n")?

  ("         DFTD3 V3.0 Rev 1
 IVDW         = " num "
 DF pbe
 parameters
 VDW_S6       =    " numf "
 VDW_S8       =    " numf "
 VDW_A1       =    " numf "
 VDW_A2       =    " numf "
 k1-k3        =   " numf "    " numf "   " numf "
 VDW_RADIUS   =   " numf " A
 VDW_CNRADIUS =   " numf " A
 Edisp (eV)   " numf "

 E6    (eV) :    " numf "
 E8    (eV) :    " numf "
 % E8        : " numf "
  ("  FREE ENERGIE OF THE ION-ELECTRON SYSTEM (eV)
  free  energy   TOTEN  =       " numf " eV

  energy  without entropy=      " numf "  energy(sigma->0) =      " numf "\n")?
"
  FORCE on cell =-STRESS in cart. coord.  units (eV" ("/reduce length")? "):
  Direction    " ("XX"|"X") "          " ("YY"|"Y") "          " ("ZZ"|"Z") "          XY          YZ          ZX
  Alpha Z    " numf "    " numf "    " numf "
  Ewald    " numf "  " numf "  " numf "    " numf "    " numf "     " numf "
  Hartree    " numf "    " numf "    " numf "     " numf "    " numf "    " numf "
  E(xc)    " numf "  " numf "  " numf "    " numf "     " numf "     " numf "
  Local    " numf "  " numf "  " numf "    " numf "     " numf "     " numf "
  n-local   " numf "   " numf "   " numf "     " numf "    " numf "    " numf "
  augment   " numf "   " numf "   " numf "     " numf "    " numf "    " numf "
  Kinetic   " numf "   " numf "   " numf "    " numf "     " numf "     " numf "
" ("  Fock        " numf "     " numf "     " numf "     " numf "     " numf "     " numf "\n")?
  ("  vdW        " numf "    " numf "    " numf "     " numf "    " numf "     " numf "\n")?
"  -------------------------------------------------------------------------------------
  Total       " numf "     " numf "     " numf "    " numf "     " numf "     " numf "
  in kB       " numf "     " numf "     " numf "    " numf "     " numf "     " numf "
  external pressure =        " numf " kB  Pullay stress =        " numf " kB

 VOLUME and BASIS-vectors are now :
  energy-cutoff  :      " numf "
  volume of cell :      " numf "
      direct lattice vectors                 reciprocal lattice vectors
     " numf "  " numf "  " numf "     " numf "  " numf "  " numf "
     " numf "  " numf "  " numf "     " numf "  " numf "  " numf "
     " numf "  " numf "  " numf "     " numf "  " numf "  " numf "

  length of vectors
     " numf "  " numf "  " numf "     " numf "  " numf "  " numf "

 FORCES acting on ions
    electron-ion (+dipol)            ewald-force                    non-local-force                 convergence-correction
" forcesentry*
" -----------------------------------------------------------------------------------------------
   " numf " " numf " " numf "   " numf " " numf " " numf "   " numf " " numf " " numf "   " numf " " numf " " numf "

 POSITION                                       TOTAL-FORCE (eV/Angst)
" position*
" -----------------------------------------------------------------------------------
    total drift:                               " numf "     " numf "      " numf "

" ("

  FREE ENERGIE OF THE ION-ELECTRON SYSTEM (eV)
  free  energy   TOTEN  =       " numf " eV

  energy  without entropy=      " numf "  energy(sigma->0) =      " numf "

 d Force = " numf "[ " numf ", " numf "]  d Energy =" numf "" numf "
 d Force = " numf "[ " numf ", " numf "]  d Ewald  =" numf "" numf "

--------------------------------------------------------------------------------------------------------\n")?
"

 " (("Steepest descent step on ions:"|"Conjugate gradient step on ions:") "
 trial-energy change:    " numf "  1 .order    " numf "   " numf "    " numf "
  (g-gl).g = " numf "      g.g   = " numf "  gl.gl    = " numf "
 g(Force)  = " numf "   g(Stress)= " numf " ortho     = " numf "
 gamma     =   " numf "
 trial     =   " numf "
 opt step  =   " numf "  (harmonic =   " numf ") maximal distance =" numf "
 next E    =   " numf "   (d E  =  " numf ")")?
"

" ("--------------------------------------------------------------------------------------------------------

  ("

 " ("Steepest descent step on ions:"|"Conjugate gradient step on ions:") "
 trial-energy change:    " numf "  1 .order    " numf "   " numf "    " numf "
  (g-gl).g = " numf "      g.g   = " numf "  gl.gl    = " numf "
 g(Force)  = " numf "   g(Stress)= " numf " ortho     = " numf "
 gamma     =   " numf "
 trial     =   " numf "
 opt step  =   " numf "  (harmonic =   " numf ") maximal distance =" numf "
 next E    =   " numf "   (d E  =  " numf ")

--------------------------------------------------------------------------------------------------------\n")?
"

--------------------------------------------------------------------------------------------------------\n";

kpointbandentry = "      " num "      " numf "      " numf "\n";

kpoint = " k-point     " (num|"***") " :       " numf "    " numf "    " numf "
  band No.  band energies     occupation
" kpointbandentry*
"\n";

softcharge = ("x"|"y"|"z") "     " numf "    " numf "    " numf "   " numf "    " numf "   " numf "   " numf "   " numf "   " numf "    " numf "\n";

pseudopotentialentry = " " numf "  " numf "  " numf "   " numf "  " (" numf "  " numf "   " numf "  " numf ")? "\n";

augmentationentry = "  " numf "  " numf "  " numf "   " numf "   " numf "  " numf "   " numf "  " numf "\n";

stats ="

" (" stress matrix after NEB project (eV)
      " numf "     " numf "      " numf "
     " numf "      " numf "      " numf "
      " numf "      " numf "      " numf "
  FORCES: max atom, RMS     " numf "    " numf "
  FORCE total and by dimension    " numf "    " numf "
  Stress total and by dimension    " numf "    " numf "
 OPT: skip step - force has converged\n")?
  (" writing wavefunctions\n")?
  (" mean value of Nose-termostat <S>:     " numf " mean value of <T> :     " numf "
 mean temperature <T/S>/<1/S>  :     " numf "
")?
 (" reached required accuracy - stopping structural energy minimisation\n")?
  (" BZINTS: Fermi energy:  " numf ";  " numf " electrons
         Band energy:   " numf ";  BLOECHL correction:  " numf "\n")?
  ("volume of typ            " num ":    " numf " %\n")?
  ("

 total charge

# of ion     s       p       d       tot
" ion*
"------------------------------------------------
tot        " numf "   " numf "   " numf "   " numf "\n")?
"
" ("\n\n magnetization (x)

# of ion     s       p       d       tot
" ion*
"------------------------------------------------
tot        " numf "   " numf "   " numf "   " numf "\n")?
"

"  (" BZINTS: Fermi energy:  " numf ";  " numf " electrons
         Band energy:   " numf ";  BLOECHL correction:  " numf "\n")?

")?
"

" (" BZINTS: Fermi energy:  " numf ";  " numf " electrons
         Band energy:   " numf ";  BLOECHL correction:  " numf "\n")?
"
 General timing and accounting informations for this job:

forcesentry = "   " numf " " numf " " numf "   " numf " " numf " " numf "   " numf " " numf " " numf "   " numf " " numf " " numf "\n";

position = "      " numf "      " numf "      " numf "         " numf "     " numf "      " numf "\n";

ion = "  " num "        " numf "   " numf "   " numf "   " numf "\n";

numf = num "." /[0-9]/* (("e"|"E") ("+"|"-")? /[0-9]/*)?;

num = "0" | ("+"|"-")? /[1-9]/ /[0-9]/*;

numf4 = ("0"|"-") "." /[0-9]/ /[0-9]/ /[0-9]/ /[0-9]/;

truthy = ("T"|"F");

str = /[ -~]/*;